words_hard_train/4221.qaiger
aag 49 15 0 1 34
2
4
8
12
16
20
24
28
32
40
44
54
64
76
86
98
6 3 5
10 6 9
14 10 13
18 14 17
22 18 21
26 22 25
30 26 29
34 31 33
36 30 32
38 35 37
42 40 21
46 43 45
48 46 18
50 19 44
52 49 51
56 10 55
58 11 54
60 57 59
62 53 61
66 6 65
68 7 64
70 67 69
72 62 71
74 23 41
78 75 76
80 79 27
82 72 81
84 26 76
88 14 87
90 15 86
92 89 91
94 85 93
96 82 94
98 38 97
i0 2 y2[0]
i1 2 y2[1]
i2 2 y2[2]
i3 2 y2[3]
i4 2 y2[4]
i5 2 y2[5]
i6 2 y2[6]
i7 2 y2[7]
i8 1 x1[7]
i9 1 x1[5]
i10 1 x1[4]
i11 1 x1[2]
i12 1 x1[1]
i13 1 x1[6]
i14 1 x1[3]
o0 bv[0]
c
simplified
  >
    xor
      1 x1
      or
        2 y2
        unary minus
          2 y2
    1
