words_hard_train/4221.qaiger.qdimacs
p cnf 49 103
a 32 38 43 16 20 22 27 0
e 1 2 3 4 5 6 7 8 9 10 11 12 13 14 15 17 18 19 21 23 24 25 26 28 29 30 31 33 34 35 36 37 39 40 41 42 44 45 46 47 48 49 0
1 2 3 0
-1 -3 0
-2 -3 0
-3 4 5 0
3 -5 0
-4 -5 0
-5 6 7 0
5 -7 0
-6 -7 0
-7 8 9 0
7 -9 0
-8 -9 0
-9 10 11 0
9 -11 0
-10 -11 0
-11 12 13 0
11 -13 0
-12 -13 0
-13 14 15 0
13 -15 0
-14 -15 0
15 16 17 0
-15 -17 0
-16 -17 0
-15 -16 18 0
15 -18 0
16 -18 0
17 18 19 0
-17 -19 0
-18 -19 0
-20 10 21 0
20 -21 0
-10 -21 0
21 22 23 0
-21 -23 0
-22 -23 0
-23 -9 24 0
23 -24 0
9 -24 0
9 -22 25 0
-9 -25 0
22 -25 0
24 25 26 0
-24 -26 0
-25 -26 0
-5 27 28 0
5 -28 0
-27 -28 0
5 -27 29 0
-5 -29 0
27 -29 0
28 29 30 0
-28 -30 0
-29 -30 0
26 30 31 0
-26 -31 0
-30 -31 0
-3 32 33 0
3 -33 0
-32 -33 0
3 -32 34 0
-3 -34 0
32 -34 0
33 34 35 0
-33 -35 0
-34 -35 0
-31 35 36 0
31 -36 0
-35 -36 0
11 20 37 0
-11 -37 0
-20 -37 0
37 -38 39 0
-37 -39 0
38 -39 0
39 13 40 0
-39 -40 0
-13 -40 0
-36 40 41 0
36 -41 0
-40 -41 0
-13 -38 42 0
13 -42 0
38 -42 0
-7 43 44 0
7 -44 0
-43 -44 0
7 -43 45 0
-7 -45 0
43 -45 0
44 45 46 0
-44 -46 0
-45 -46 0
42 46 47 0
-42 -47 0
-46 -47 0
-41 -47 48 0
41 -48 0
47 -48 0
-19 48 49 0
19 -49 0
-48 -49 0
49 0
